# Solution for model GasLib-40
# Objective value = 6.1583015655389445e+01
loadshed[innode_1] 0
loadshed[innode_2] 0
loadshed[innode_3] 0
loadshed[innode_4] 0
loadshed[innode_5] 0
loadshed[innode_6] 0
loadshed[innode_7] 0
loadshed[innode_8] 0
loadshed[source_1] -9.9471069712580240e-02
loadshed[source_2] 2.4163248029515227e-01
loadshed[source_3] 2.4738193465673586e-01
loadshed[sink_1] 0.797979893649527
loadshed[sink_2] 0
loadshed[sink_3] 0
loadshed[sink_4] 0
loadshed[sink_5] 0
loadshed[sink_6] 0
loadshed[sink_7] 0
loadshed[sink_8] 0
loadshed[sink_9] 0
loadshed[sink_10] 0
loadshed[sink_11] 0
loadshed[sink_12] 1
loadshed[sink_13] 0
loadshed[sink_14] 0
loadshed[sink_15] 0
loadshed[sink_16] 0
loadshed[sink_17] 0
loadshed[sink_18] 0
loadshed[sink_19] 0
loadshed[sink_20] 0
loadshed[sink_21] 1
loadshed[sink_22] 0
loadshed[sink_23] 0
loadshed[sink_24] 9.6760577699848949e-01
loadshed[sink_25] 0
loadshed[sink_26] 0
loadshed[sink_27] 0
loadshed[sink_28] 0
loadshed[sink_29] 0
flow[source_1,sink_3] 1.7381568681949227e+02
flow[innode_1,sink_16] 1.6354166666666970e+01
flow[innode_6,sink_13] -4.5024323440232621e+00
flow[sink_13,sink_14] -2.0856599010689930e+01
flow[sink_14,sink_10] -37.2107656773566
flow[sink_25,sink_26] 0
flow[sink_26,sink_9] 8.5604484344610583e+01
flow[sink_9,sink_18] 6.9250317677943912e+01
flow[sink_26,sink_4] -1.0195865101127723e+02
flow[sink_4,sink_20] -99.9254028588812
flow[sink_18,sink_6] 5.2896151011277240e+01
flow[sink_25,innode_8] -1.4110735348615592e+02
flow[sink_6,sink_7] 1.6883947188670540e+01
flow[sink_6,sink_22] 1.9658037155940029e+01
flow[sink_7,sink_24] 0.52978052200387
flow[sink_22,sink_1] 3.3038704892733608e+00
flow[sink_24,sink_21] 0
flow[sink_21,sink_12] 0
flow[sink_7,sink_5] 0
flow[sink_5,sink_17] -1.6354166666667197e+01
flow[sink_17,sink_4] 1.8387414819062769e+01
flow[sink_17,sink_8] -5.1095748152396524e+01
flow[sink_3,sink_23] 16.3541666666697
flow[sink_8,sink_20] -67.4499148190632
flow[sink_25,sink_20] 1.8372948434461108e+02
flow[sink_25,sink_15] -5.4473865181098816e+01
flow[sink_15,sink_29] -8.7182198514449738e+01
flow[sink_29,sink_28] 1.6354166666667879e+01
flow[sink_29,sink_2] 0
flow[sink_2,sink_15] -1.6354166666684250e+01
flow[sink_29,innode_7] -1.1989053184778373e+02
flow[innode_4,sink_19] 4.6113397269268681e+01
flow[sink_19,innode_3] 4.2100989491293035e+01
flow[innode_4,innode_5] 7.2868201741421657e+01
flow[sink_27,innode_5] -7.2868201741421657e+01
flow[sink_27,sink_19] 5.6514035074754986e+01
flow[sink_10,sink_11] 3.2708333333333641e+01
flow[sink_10,innode_2] -4.4172276186063868e+01
flow[sink_10,innode_3] -4.2100989491293035e+01
flow[innode_6,sink_25] 4.5024323440232621e+00
flow[sink_11,innode_1] 1.6354166666666970e+01
flow[sink_19,innode_2] 4.4172276186063868e+01
flow[source_3,innode_4] 1.1898159901069033e+02
flow[source_2,innode_7] 1.1989053184778373e+02
flow[sink_3,innode_8] 1.4110735348615592e+02
pressure[innode_1] 7.6658690237503336e+01
pressure[innode_2] 79.145078779016
pressure[innode_3] 7.9051850905207388e+01
pressure[innode_4] 81.01325
pressure[innode_5] 8.0963127408490067e+01
pressure[innode_6] 7.4988228760310449e+01
pressure[innode_7] 81.01325
pressure[innode_8] 8.0432250558961542e+01
pressure[source_1] 81.01325
pressure[source_2] 81.01325
pressure[source_3] 81.01325
pressure[sink_1] 1.01325
pressure[sink_2] 7.5199087337195976e+01
pressure[sink_3] 8.0432250558961542e+01
pressure[sink_4] 23.8566892898336
pressure[sink_5] 2.3341128448237239e+01
pressure[sink_6] 1.8515855728021549e+00
pressure[sink_7] 1.6198092231406365e+00
pressure[sink_8] 2.6487370974871403e+01
pressure[sink_9] 5.76975319237373
pressure[sink_10] 7.6810391545106881e+01
pressure[sink_11] 7.6658690237503336e+01
pressure[sink_12] 1.01325
pressure[sink_13] 75.0130499173967
pressure[sink_14] 7.5050374577915676e+01
pressure[sink_15] 7.5252480086962422e+01
pressure[sink_16] 7.5637040402685656e+01
pressure[sink_17] 2.4559395653591988e+01
pressure[sink_18] 3.2640702973419664e+00
pressure[sink_19] 79.145078779016
pressure[sink_20] 3.1187681471326279e+01
pressure[sink_21] 1.01325
pressure[sink_22] 1.2281527552709068e+00
pressure[sink_23] 8.0267532547301755e+01
pressure[sink_24] 1.01325
pressure[sink_25] 7.4988228760310449e+01
pressure[sink_26] 10.8934025194909
pressure[sink_27] 8.0358455979995412e+01
pressure[sink_28] 7.7511365670073516e+01
pressure[sink_29] 7.7806647943690692e+01
interdiction[source_1,sink_3] 0
interdiction[innode_1,sink_16] 0
interdiction[innode_6,sink_13] 0
interdiction[sink_13,sink_14] 0
interdiction[sink_14,sink_10] 0
interdiction[sink_25,sink_26] 1
interdiction[sink_26,sink_9] 0
interdiction[sink_9,sink_18] 0
interdiction[sink_26,sink_4] 0
interdiction[sink_4,sink_20] 0
interdiction[sink_18,sink_6] 0
interdiction[sink_25,innode_8] 0
interdiction[sink_6,sink_7] 0
interdiction[sink_6,sink_22] 0
interdiction[sink_7,sink_24] 0
interdiction[sink_22,sink_1] 0
interdiction[sink_24,sink_21] 0
interdiction[sink_21,sink_12] 0
interdiction[sink_7,sink_5] 1
interdiction[sink_5,sink_17] 0
interdiction[sink_17,sink_4] 0
interdiction[sink_17,sink_8] 0
interdiction[sink_3,sink_23] 0
interdiction[sink_8,sink_20] 0
interdiction[sink_25,sink_20] 0
interdiction[sink_25,sink_15] 0
interdiction[sink_15,sink_29] 0
interdiction[sink_29,sink_28] 0
interdiction[sink_29,sink_2] 1
interdiction[sink_2,sink_15] 0
interdiction[sink_29,innode_7] 0
interdiction[innode_4,sink_19] 0
interdiction[sink_19,innode_3] 0
interdiction[innode_4,innode_5] 0
interdiction[sink_27,innode_5] 0
interdiction[sink_27,sink_19] 0
interdiction[sink_10,sink_11] 0
interdiction[sink_10,innode_2] 0
interdiction[sink_10,innode_3] 0
interdiction[innode_6,sink_25] 0
interdiction[sink_11,innode_1] 0
interdiction[sink_19,innode_2] 0
interdiction[source_3,innode_4] 0
interdiction[source_2,innode_7] 0
interdiction[sink_3,innode_8] 0
WCcheckFlow[source_1,sink_3] 39
WCcheckFlow[innode_1,sink_16] 1
WCcheckFlow[innode_6,sink_13] 13
WCcheckFlow[sink_13,sink_14] 12
WCcheckFlow[sink_14,sink_10] 11
WCcheckFlow[sink_25,sink_26] 0
WCcheckFlow[sink_26,sink_9] 9
WCcheckFlow[sink_9,sink_18] 8
WCcheckFlow[sink_26,sink_4] -10
WCcheckFlow[sink_4,sink_20] -14
WCcheckFlow[sink_18,sink_6] 7
WCcheckFlow[sink_25,innode_8] -36
WCcheckFlow[sink_6,sink_7] 4
WCcheckFlow[sink_6,sink_22] 2
WCcheckFlow[sink_7,sink_24] 3
WCcheckFlow[sink_22,sink_1] 1
WCcheckFlow[sink_24,sink_21] 2
WCcheckFlow[sink_21,sink_12] 1
WCcheckFlow[sink_7,sink_5] 0
WCcheckFlow[sink_5,sink_17] -1
WCcheckFlow[sink_17,sink_4] -3
WCcheckFlow[sink_17,sink_8] 1
WCcheckFlow[sink_3,sink_23] 1
WCcheckFlow[sink_8,sink_20] 0
WCcheckFlow[sink_25,sink_20] 15
WCcheckFlow[sink_25,sink_15] 6
WCcheckFlow[sink_15,sink_29] 4
WCcheckFlow[sink_29,sink_28] 1
WCcheckFlow[sink_29,sink_2] 0
WCcheckFlow[sink_2,sink_15] -1
WCcheckFlow[sink_29,innode_7] 2
WCcheckFlow[innode_4,sink_19] -4
WCcheckFlow[sink_19,innode_3] -5
WCcheckFlow[innode_4,innode_5] 2
WCcheckFlow[sink_27,innode_5] -1
WCcheckFlow[sink_27,sink_19] 0
WCcheckFlow[sink_10,sink_11] 3
WCcheckFlow[sink_10,innode_2] 1
WCcheckFlow[sink_10,innode_3] 6
WCcheckFlow[innode_6,sink_25] -14
WCcheckFlow[sink_11,innode_1] 2
WCcheckFlow[sink_19,innode_2] 0
WCcheckFlow[source_3,innode_4] -1
WCcheckFlow[source_2,innode_7] -1
WCcheckFlow[sink_3,innode_8] 37
